[ma. 03. april 18:07:43 +0200 2023]  ./input/alternate_g_np/50-5-3.gcc
Set parameter Username
Academic license - for non-commercial use only - expires 2024-03-28
Set parameter TimeLimit to value 1800
Set parameter PreCrush to value 1
Set parameter LazyConstraints to value 1
Gurobi Optimizer version 10.0.1 build v10.0.1rc0 (linux64)

CPU model: AMD Ryzen 9 5950X 16-Core Processor, instruction set [SSE2|AVX|AVX2]
Thread count: 16 physical cores, 32 logical processors, using up to 32 threads

Optimize a model with 56 rows, 350 columns and 950 nonzeros
Model fingerprint: 0x9a0791d2
Variable types: 0 continuous, 350 integer (350 binary)
Coefficient statistics:
  Matrix range     [1e+00, 1e+00]
  Objective range  [1e+00, 1e+02]
  Bounds range     [1e+00, 1e+00]
  RHS range        [1e+00, 1e+00]
Presolve time: 0.00s
Presolved: 56 rows, 350 columns, 950 nonzeros
Variable types: 0 continuous, 350 integer (350 binary)

Root relaxation: objective 2.205000e+03, 6 iterations, 0.00 seconds (0.00 work units)

    Nodes    |    Current Node    |     Objective Bounds      |     Work
 Expl Unexpl |  Obj  Depth IntInf | Incumbent    BestBd   Gap | It/Node Time

     0     0 2205.00000    0    6          - 2205.00000      -     -    0s
     0     0 2205.00000    0    -          - 2205.00000      -     -    0s
     0     0 2205.00000    0    6          - 2205.00000      -     -    0s
     0     0 2205.00000    0    -          - 2205.00000      -     -    0s
     0     0 2205.00000    0    6          - 2205.00000      -     -    0s
     0     0 2205.00000    0    -          - 2205.00000      -     -    0s
     0     0 2205.00000    0    2          - 2205.00000      -     -    0s
     0     2 2205.00000    0    8          - 2205.00000      -     -    0s
 21449 12429 2205.00000   45    -          - 2205.00000      -  22.2    5s
*29744 10698              43    2137.0000000 2205.00000  3.18%  24.5    7s
*31196  1928              32    2205.0000000 2205.00000  0.00%  25.0    7s

Cutting planes:
  User: 115
  Lazy constraints: 2505

Explored 32069 nodes (816990 simplex iterations) in 8.02 seconds (2.57 work units)
Thread count was 32 (of 32 available processors)

Solution count 2: 2205 2137 

Optimal solution found (tolerance 1.00e-04)
Best objective 2.205000000000e+03, best bound 2.205000000000e+03, gap 0.0000%

User-callback calls 65263, time in user-callback 2.98 sec
Minimal separator inequalities added: 195896
Indegree inequalities added: 0
Passed solution check
[ma. 03. april 18:07:51 +0200 2023]  done

